SCIP version 5.0.0 [precision: 8 byte] [memory: block] [mode: optimized] [LP solver: NONE] [GitHash: 3bbd232]
Copyright (C) 2002-2017 Konrad-Zuse-Zentrum fuer Informationstechnik Berlin (ZIB)

External codes: 
  Readline EditLine w  GNU library for command line editing (gnu.org/s/readline)
  CppAD 20160000.1     Algorithmic Differentiation of C++ algorithms developed by B. Bell (www.coin-or.org/CppAD)
  ZLIB 1.2.5           General purpose compression library by J. Gailly and M. Adler (zlib.net)
  GMP 6.1.2            GNU Multiple Precision Arithmetic Library developed by T. Granlund (gmplib.org)

user parameter file <scip.set> not found - using default parameters

read problem <../../Split_data/output/biodeg/0/4_sample_biodeg.logreg>
============

File name	:	../../Split_data/output/biodeg/0/4_sample_biodeg.logreg
Problem name 	:	4_sample_biodeg
Number of data	:	844
Number of var	:	41
The given data has linear dependence
1 sets of column vector are linearly dependent:
{ 19}, 

[dim=1] time: 0.027056
[dim=2] time: 0.055972
[dim=3] time: 0.088846
[dim=4] time: 0.127879
[dim=5] time: 0.159024
[dim=6] time: 0.189724
[dim=7] time: 0.223762
[dim=8] time: 0.252242
[dim=9] time: 0.280284
[dim=10] time: 0.307504
[dim=11] time: 0.335683
[dim=12] time: 0.361482
[dim=13] time: 0.393635
[dim=14] time: 0.414674
[dim=15] time: 0.43648
[dim=16] time: 0.455206
[dim=17] time: 0.479537
[dim=18] time: 0.499147
[dim=19] time: 0.515766
[dim=20] time: 0.53332
[dim=21] time: 0.550048
[dim=22] time: 0.565723
[dim=23] time: 0.582606
[dim=24] Time of forward = 0.597026sec.
AIC: 529.933
k: 23

[dim=40] time: 0.140082
[dim=39] time: 0.18209
[dim=38] time: 0.223917
[dim=37] time: 0.266793
[dim=36] time: 0.302049
[dim=35] time: 0.344933
[dim=34] time: 0.394379
[dim=33] time: 0.442396
[dim=32] time: 0.483603
[dim=31] time: 0.519117
[dim=30] time: 0.555667
[dim=29] time: 0.596734
[dim=28] time: 0.627348
[dim=27] time: 0.663342
[dim=26] time: 0.690359
[dim=25] time: 0.718157
[dim=24] time: 0.745793
[dim=23] time: 0.771017
[dim=22] Time of backward = 0.792704sec.
AIC: 527.394
k: 23
